Route 1: 0 87 92 45 74 66 12 16 41 0
Route 2: 0 85 4 37 90 19 64 32 27 23 68 0
Route 3: 0 56 79 21 70 26 77 97 80 86 75 63 0
Route 4: 0 61 72 25 7 93 51 91 0
Route 5: 0 49 58 29 89 69 33 0
Route 6: 0 65 73 71 47 60 17 48 98 54 0
Route 7: 0 38 62 96 5 36 40 84 22 46 82 0
Route 8: 0 15 35 2 6 8 88 20 30 67 3 44 78 0
Route 9: 0 53 52 9 10 1 43 55 83 50 94 34 39 0
Route 10: 0 18 57 42 24 13 99 14 76 100 28 31 0
Route 11: 0 95 59 11 81 0
